17 4 8 9 3 1 2 14 11 16 0 6 5 15 7 19 13 12 18 10  
17 4 8 11 9 3 1 2 14 16 0 6 13 15 7 19 5 12 18 10  
17 4 8 11 2 16 3 1 10 0 14 15 9 6 5 13 18 7 12 19  
17 4 8 9 14 2 3 1 11 16 0 6 13 15 7 19 5 12 18 10  
17 4 8 9 3 1 11 14 16 2 0 6 5 18 15 7 19 13 12 10  
17 4 8 11 16 2 3 1 10 14 0 15 6 5 18 7 19 13 12 9  
17 4 11 8 9 3 1 2 16 14 6 0 5 7 18 15 19 13 10 12  
17 4 11 8 9 3 1 2 16 14 6 0 5 15 19 10 7 12 13 18  
17 4 11 8 9 3 1 2 16 6 13 14 0 5 18 7 12 19 10 15  
17 4 8 11 16 2 3 1 10 0 14 15 19 9 5 13 7 12 18 6  
17 4 8 11 16 2 3 1 10 0 14 15 19 9 5 18 7 12 13 6  
17 4 8 2 3 1 9 16 13 11 14 6 5 0 7 18 12 15 19 10  
17 4 8 11 16 2 3 1 10 0 14 6 5 15 19 9 13 7 18 12  
17 4 11 8 9 3 1 2 16 14 6 0 5 13 7 18 19 15 10 12  
17 4 8 9 3 1 2 16 13 11 14 0 6 5 15 7 19 10 18 12  
17 4 8 11 16 2 3 1 10 0 14 6 5 18 15 19 9 7 13 12  
17 4 11 8 9 3 1 2 16 14 6 0 5 13 18 15 19 7 12 10  
17 4 8 11 16 2 3 1 10 0 14 6 5 18 15 9 13 7 12 19  
17 4 8 9 3 1 2 16 13 11 14 6 5 0 7 18 12 15 19 10  
17 4 11 8 9 3 1 2 16 13 6 0 5 7 18 15 19 14 12 10  
17 4 8 11 16 2 3 1 14 10 0 9 5 18 7 13 12 19 6 15  
17 4 8 9 3 1 11 14 16 2 0 6 5 18 15 7 19 13 12 10  
17 4 8 11 16 2 3 1 9 14 6 5 13 0 7 18 12 19 10 15  
17 4 8 11 16 2 3 1 10 0 14 15 9 6 5 13 7 19 12 18  
17 4 11 8 9 3 1 2 16 13 14 6 5 0 7 18 12 15 19 10  
17 4 8 2 16 1 9 3 13 11 14 6 5 0 7 18 12 15 19 10  
17 4 11 8 9 3 1 2 16 6 13 14 0 15 18 7 12 19 10 5  
17 4 8 2 3 1 11 16 13 9 14 6 5 0 7 18 12 15 19 10  
17 4 8 11 16 2 3 1 10 0 14 15 9 6 5 13 7 19 18 12  
17 4 8 11 16 2 3 1 10 0 14 15 19 9 5 18 7 12 13 6  
17 4 8 11 16 2 3 1 19 0 14 15 9 6 5 13 18 7 12 10  
17 4 8 9 3 1 2 14 11 16 0 6 5 15 7 19 13 12 18 10  
17 4 8 11 16 2 3 1 14 10 12 9 5 18 13 7 19 6 0 15  
17 4 8 11 16 2 3 1 10 0 14 9 5 18 13 7 12 19 6 15  
17 4 8 2 3 1 9 15 16 14 11 10 0 6 5 18 7 19 13 12  
17 4 11 8 9 3 1 2 16 10 0 14 6 5 15 7 19 13 12 18  
17 4 11 8 9 3 1 2 16 14 6 0 5 15 7 19 18 13 10 12  
17 4 8 2 3 1 11 16 13 9 14 6 5 0 7 18 12 15 19 10  
17 4 8 2 3 1 11 16 14 9 13 6 5 0 7 18 12 15 19 10  
17 4 8 9 3 1 2 16 13 19 11 6 5 7 18 12 14 10 0 15  
17 4 11 8 9 3 1 2 16 14 6 0 13 15 7 19 12 5 18 10  
17 4 11 8 9 3 1 2 16 14 6 0 5 15 19 10 7 12 13 18  
17 4 8 9 3 1 2 16 13 11 14 6 0 5 7 18 15 19 10 12  
17 4 8 9 14 2 3 1 11 16 0 6 13 15 7 19 5 12 18 10  
17 4 8 11 16 2 3 1 10 0 14 6 5 18 15 19 9 13 7 12  
17 4 8 11 16 2 3 1 14 10 0 6 5 18 7 19 13 12 9 15  
17 4 8 11 16 2 3 1 9 13 14 6 0 5 18 7 12 19 10 15  
17 4 8 11 16 2 3 1 10 0 14 6 5 13 15 7 19 18 12 9  
17 4 8 11 16 2 3 1 14 10 13 6 5 18 12 7 19 9 0 15  
17 4 8 11 16 2 3 1 10 0 14 6 5 18 7 19 12 13 9 15  
17 4 8 11 16 2 3 1 10 0 14 6 5 18 15 19 9 7 13 12  
17 4 8 11 16 2 3 1 10 0 14 15 9 5 19 13 18 7 12 6  
17 4 8 11 16 2 3 1 10 0 14 15 19 9 5 13 18 7 12 6  
17 4 8 11 9 3 1 14 16 6 2 5 12 0 7 18 13 19 10 15  
17 4 8 2 16 1 9 3 13 14 6 0 5 7 18 15 19 11 12 10  
17 4 11 8 9 3 1 2 16 14 6 0 5 15 19 10 13 12 7 18  
17 4 8 9 3 1 2 16 13 19 14 6 0 5 7 18 15 11 10 12  
17 4 8 9 3 1 2 16 13 11 14 6 0 5 15 7 12 18 19 10  
17 4 8 11 2 3 1 16 14 10 12 9 5 18 7 13 19 6 0 15  
17 4 8 11 16 2 3 1 10 0 14 6 5 18 15 7 12 13 19 9  
17 4 8 11 16 2 3 1 10 0 14 6 15 19 9 13 12 7 18 5  
17 4 11 8 9 3 1 2 16 14 6 0 5 13 7 15 19 10 18 12  
